p cnf 25 157
-7 8 -6 -10 9 0
20 -16 -19 17 -18 0
-25 24 -22 -23 21 0
-1 11 -19 -8 -21 0
4 1 2 3 -5 0
-19 -18 -17 20 -16 0
-23 -22 25 24 -21 0
-12 3 -17 7 -25 0
-5 4 1 2 -3 0
11 14 -15 13 12 0
6 -25 -16 -12 4 0
6 7 -10 8 -9 0
15 11 14 -12 13 0
-15 -11 -12 13 14 0
-16 20 -18 19 -17 0
12 15 -11 -14 13 0
-13 14 11 15 -12 0
-14 -1 -22 -7 20 0
19 -20 -17 -16 -18 0
20 -16 18 -17 19 0
-11 14 -13 -15 -12 0
18 16 -19 20 17 0
23 -21 -22 25 -24 0
23 -21 -24 22 -25 0
19 -18 -17 20 16 0
-3 -1 4 -2 -5 0
-12 -14 15 13 -11 0
18 -17 16 20 19 0
6 -8 7 -10 9 0
18 -20 -19 -17 16 0
-8 10 -7 6 -9 0
1 4 5 2 -3 0
22 -25 -24 -23 21 0
-24 -25 -22 -21 23 0
-11 -15 -13 12 -14 0
-10 6 9 -8 -7 0
2 -5 4 -3 -1 0
11 -14 12 -15 -13 0
9 -8 -7 10 -6 0
8 10 7 -9 -6 0
-17 -19 20 -18 16 0
-15 13 -14 12 -11 0
-3 -4 -1 -5 2 0
-6 -8 -7 10 -9 0
5 -1 4 2 -3 0
-8 -9 -6 -7 -10 0
-5 -2 -4 -3 1 0
18 -16 17 19 -20 0
17 10 -12 -24 3 0
21 -24 22 -25 23 0
7 -9 -8 6 10 0
-5 2 1 -3 -4 0
8 9 10 6 7 0
1 -2 5 3 4 0
6 -7 -8 9 10 0
7 -6 -9 -10 8 0
11 -12 -14 15 13 0
4 1 2 3 5 0
-21 22 -23 24 -25 0
23 25 21 -24 22 0
14 12 -15 -11 -13 0
3 -1 4 -2 5 0
10 9 -6 8 7 0
17 22 -14 -7 2 0
-22 21 -24 23 -25 0
-19 -2 9 -15 -23 0
-12 -25 4 -19 7 0
5 2 1 3 -4 0
-22 -24 21 23 25 0
2 3 1 -5 -4 0
20 17 18 19 16 0
17 18 16 -20 19 0
7 -10 9 -6 8 0
-23 21 25 24 -22 0
-2 -3 -4 5 1 0
9 -10 -8 -6 -7 0
-15 12 -14 11 13 0
-5 3 2 -4 -1 0
5 -23 -6 12 -19 0
-13 11 -12 -15 -14 0
-1 2 -4 -3 5 0
14 15 13 12 -11 0
-23 9 -12 -3 -18 0
-13 12 -15 14 11 0
8 -18 -15 22 1 0
4 -2 -3 -1 5 0
23 24 -21 -22 -25 0
-13 -15 -14 -12 -11 0
-21 -22 23 24 25 0
-19 18 -17 -16 -20 0
9 -6 7 10 -8 0
18 17 20 -16 19 0
15 -13 -14 -11 12 0
25 23 21 24 22 0
21 22 25 -24 -23 0
-5 3 -4 1 -2 0
-4 3 -1 -5 -2 0
15 12 -14 11 -13 0
-16 -1 25 8 -14 0
-11 -12 -13 15 14 0
8 9 6 10 -7 0
-13 15 12 14 -11 0
4 -18 13 -24 -8 0
-21 -9 -18 -1 11 0
12 -19 7 2 23 0
-24 25 -21 22 -23 0
-9 8 6 -7 -10 0
14 -15 -12 13 11 0
4 13 9 -19 24 0
-16 -20 -19 -18 17 0
9 1 -23 -12 -16 0
10 -6 9 8 -7 0
24 -18 -12 -1 7 0
1 3 5 -4 -2 0
-22 21 -23 -24 -25 0
14 -17 -22 -5 -6 0
12 13 11 14 15 0
-12 -11 13 -14 -15 0
-10 7 -8 -9 -6 0
14 -13 11 -15 -12 0
-17 -13 -4 21 -9 0
-11 15 -12 -13 -14 0
7 -10 6 8 9 0
-19 17 -18 20 16 0
24 -25 21 -22 23 0
5 -2 4 -3 1 0
15 -24 -19 2 7 0
-22 23 25 21 24 0
-20 -18 -16 -19 -17 0
21 -25 22 -23 24 0
-12 -15 11 13 -14 0
-8 -10 -9 6 7 0
4 5 3 -1 2 0
14 11 12 -13 15 0
17 16 -19 18 -20 0
17 -20 -16 19 -18 0
-7 6 8 -10 9 0
7 -8 9 6 10 0
18 10 11 -21 4 0
-5 3 4 -2 1 0
-21 -22 -24 -23 -25 0
-20 19 -17 -18 16 0
-6 8 -9 -7 -10 0
19 17 16 -18 -20 0
-8 7 10 -9 -6 0
10 16 -14 -3 -22 0
9 -6 7 -10 -8 0
-1 -5 -3 -4 -2 0
-16 18 19 -20 -17 0
14 8 -23 -3 -16 0
16 -20 -17 -19 -18 0
21 22 23 24 -25 0
-23 21 25 24 22 0
13 16 10 4 25 0
16 15 3 -9 23 0
-4 3 5 -1 2 0
-4 -2 3 -1 5 0
